; benchmark generated from python API
(set-info :status unknown)
(declare-fun x_month () (_ BitVec 32))
(declare-fun x_year () (_ BitVec 32))
(declare-fun x_day () (_ BitVec 32))
(assert
 (let (($x443 (or (= (_ bv4 32) x_month) (= (_ bv6 32) x_month) (= (_ bv9 32) x_month) (= (_ bv11 32) x_month))))
 (let (($x1924 (and (= (_ bv0 32) (bvsmod x_year (_ bv4 32))) (and (distinct (_ bv0 32) (bvsmod x_year (_ bv100 32))) true))))
 (let ((?x6139 (ite (= (_ bv2 32) x_month) (ite (or $x1924 (= (_ bv0 32) (bvsmod x_year (_ bv400 32)))) (_ bv29 32) (_ bv28 32)) (ite $x443 (_ bv30 32) (_ bv31 32)))))
 (let (($x5327 (bvsle x_day ?x6139)))
 (let (($x1902 (bvsle (_ bv1 32) x_day)))
 (let (($x3734 (bvsle (_ bv1 32) x_month)))
 (let (($x534 (bvsge (_ bv12 32) x_month)))
 (let (($x859 (bvsle (_ bv1901 32) x_year)))
 (or (and (= (_ bv1900 32) x_year) (bvsle (_ bv3 32) x_month) $x534 $x1902 $x5327) (and $x859 (bvsge (_ bv2099 32) x_year) $x3734 $x534 $x1902 $x5327) (and (= (_ bv2100 32) x_year) $x3734 (bvsge (_ bv2 32) x_month) $x1902 $x5327)))))))))))
(assert
 (let (($x1368 (or (bvslt (_ bv1 32) x_month) (and (= (_ bv1 32) x_month) (bvsle (_ bv1 32) x_day)))))
 (let (($x4269 (= (_ bv2023 32) x_year)))
 (or (bvslt (_ bv2023 32) x_year) (and $x4269 $x1368)))))
(assert
 (let (($x4181 (or (bvsgt (_ bv1 32) x_month) (and (= (_ bv1 32) x_month) (bvsge (_ bv31 32) x_day)))))
 (let (($x4269 (= (_ bv2023 32) x_year)))
 (or (bvsgt (_ bv2023 32) x_year) (and $x4269 $x4181)))))
(assert
 (let ((?x1627 (bvadd x_month (bvadd (bvmul (_ bv0 32) (_ bv12 32)) (_ bv0 32)))))
(let ((?x1968 (bvsub (ite (bvuge ?x1627 (_ bv2147483648 32)) (bvsub ?x1627 (_ bv0 32)) ?x1627) (_ bv1 32))))
(let ((?x3084 (bvsmod ?x1968 (_ bv12 32))))
(let ((?x1761 (bvadd ?x3084 (_ bv1 32))))
(let (($x3866 (= (_ bv11 32) ?x1761)))
(let (($x1331 (= (_ bv9 32) ?x1761)))
(let (($x2742 (= (_ bv6 32) ?x1761)))
(let (($x3118 (= (_ bv4 32) ?x1761)))
(let ((?x2065 (bvsdiv ?x1968 (_ bv12 32))))
(let ((?x1836 (ite (and (bvuge ?x1968 (_ bv2147483648 32)) (and (distinct (_ bv0 32) ?x3084) true)) (bvsub ?x2065 (_ bv1 32)) ?x2065)))
(let ((?x2800 (bvadd x_year ?x1836)))
(let (($x1344 (or (and (= (_ bv0 32) (bvsmod ?x2800 (_ bv4 32))) (and (distinct (_ bv0 32) (bvsmod ?x2800 (_ bv100 32))) true)) (= (_ bv0 32) (bvsmod ?x2800 (_ bv400 32))))))
(let (($x2145 (= (_ bv2 32) ?x1761)))
(let ((?x3405 (ite $x2145 (ite $x1344 (_ bv29 32) (_ bv28 32)) (ite (or $x3118 $x2742 $x1331 $x3866) (_ bv30 32) (_ bv31 32)))))
(let (($x899 (bvsgt (_ bv1 32) x_day)))
(let ((?x5504 (ite $x899 (_ bv1 32) (ite (bvsgt x_day ?x3405) ?x3405 x_day))))
(let ((?x3505 (ite (bvsgt (_ bv1 32) ?x5504) (_ bv1 32) (ite (bvsgt ?x5504 ?x3405) ?x3405 ?x5504))))
(let ((?x1618 (ite $x2145 (ite $x1344 (_ bv31 32) (_ bv31 32)) (ite (= (_ bv1 32) ?x1761) (ite $x1344 (_ bv0 32) (_ bv0 32)) (_ bv0 32)))))
(let ((?x5270 (ite $x3118 (ite $x1344 (_ bv91 32) (_ bv90 32)) (ite (= (_ bv3 32) ?x1761) (ite $x1344 (_ bv60 32) (_ bv59 32)) ?x1618))))
(let ((?x1708 (ite $x2742 (ite $x1344 (_ bv152 32) (_ bv151 32)) (ite (= (_ bv5 32) ?x1761) (ite $x1344 (_ bv121 32) (_ bv120 32)) ?x5270))))
(let ((?x7130 (ite (= (_ bv8 32) ?x1761) (ite $x1344 (_ bv213 32) (_ bv212 32)) (ite (= (_ bv7 32) ?x1761) (ite $x1344 (_ bv182 32) (_ bv181 32)) ?x1708))))
(let ((?x582 (ite (= (_ bv10 32) ?x1761) (ite $x1344 (_ bv274 32) (_ bv273 32)) (ite $x1331 (ite $x1344 (_ bv244 32) (_ bv243 32)) ?x7130))))
(let ((?x3561 (ite (= (_ bv12 32) ?x1761) (ite $x1344 (_ bv335 32) (_ bv334 32)) (ite $x3866 (ite $x1344 (_ bv305 32) (_ bv304 32)) ?x582))))
(let ((?x5549 (bvadd (bvmul (_ bv365 32) (bvsub ?x2800 (_ bv1 32))) (bvsdiv (bvsub ?x2800 (_ bv1 32)) (_ bv4 32)))))
(let ((?x6577 (bvadd (bvsub ?x5549 (bvsdiv (bvsub ?x2800 (_ bv1 32)) (_ bv100 32))) (bvsdiv (bvsub ?x2800 (_ bv1 32)) (_ bv400 32)))))
(let ((?x2057 (bvadd (bvadd (bvsub (bvadd (bvadd ?x6577 ?x3561) (bvsub ?x3505 (_ bv1 32))) (_ bv730179 32)) (_ bv30 32)) (_ bv730179 32))))
(let ((?x3329 (bvsmod ?x2057 (_ bv146097 32))))
(let ((?x1007 (bvsdiv ?x3329 (_ bv36524 32))))
(let ((?x1400 (ite (bvsle (_ bv4 32) ?x1007) (_ bv3 32) ?x1007)))
(let ((?x6996 (bvsub ?x3329 (bvmul ?x1400 (_ bv36524 32)))))
(let ((?x7022 (bvsmod ?x6996 (_ bv1461 32))))
(let ((?x3508 (bvsdiv ?x7022 (_ bv365 32))))
(let ((?x749 (ite (bvsle (_ bv4 32) ?x3508) (_ bv3 32) ?x3508)))
(let ((?x5447 (bvadd (bvadd (bvmul (bvsdiv ?x2057 (_ bv146097 32)) (_ bv400 32)) (bvmul ?x1400 (_ bv100 32))) (bvmul (bvsdiv ?x6996 (_ bv1461 32)) (_ bv4 32)))))
(let ((?x5012 (bvadd (bvadd ?x5447 ?x749) (_ bv1 32))))
(let (($x1520 (or (and (= (_ bv0 32) (bvsmod ?x5012 (_ bv4 32))) (and (distinct (_ bv0 32) (bvsmod ?x5012 (_ bv100 32))) true)) (= (_ bv0 32) (bvsmod ?x5012 (_ bv400 32))))))
(let ((?x2815 (bvsub ?x7022 (bvmul ?x749 (_ bv365 32)))))
(let ((?x6206 (ite $x1520 (_ bv31 32) (_ bv31 32))))
(let (($x4366 (bvsge ?x2815 ?x6206)))
(let ((?x3239 (ite $x4366 (bvadd (bvsub ?x2815 ?x6206) (_ bv1 32)) (bvadd (bvsub ?x2815 (ite $x1520 (_ bv0 32) (_ bv0 32))) (_ bv1 32)))))
(let ((?x2502 (ite $x1520 (_ bv60 32) (_ bv59 32))))
(let (($x3664 (bvsge ?x2815 ?x2502)))
(let ((?x5145 (ite $x1520 (_ bv91 32) (_ bv90 32))))
(let (($x3741 (bvsge ?x2815 ?x5145)))
(let ((?x1475 (ite $x3741 (bvadd (bvsub ?x2815 ?x5145) (_ bv1 32)) (ite $x3664 (bvadd (bvsub ?x2815 ?x2502) (_ bv1 32)) ?x3239))))
(let ((?x3612 (ite $x1520 (_ bv121 32) (_ bv120 32))))
(let (($x4259 (bvsge ?x2815 ?x3612)))
(let ((?x1595 (ite $x1520 (_ bv152 32) (_ bv151 32))))
(let (($x5838 (bvsge ?x2815 ?x1595)))
(let ((?x6173 (ite $x5838 (bvadd (bvsub ?x2815 ?x1595) (_ bv1 32)) (ite $x4259 (bvadd (bvsub ?x2815 ?x3612) (_ bv1 32)) ?x1475))))
(let ((?x2695 (ite $x1520 (_ bv182 32) (_ bv181 32))))
(let (($x3740 (bvsge ?x2815 ?x2695)))
(let ((?x1237 (ite $x1520 (_ bv213 32) (_ bv212 32))))
(let (($x2923 (bvsge ?x2815 ?x1237)))
(let ((?x1842 (ite $x2923 (bvadd (bvsub ?x2815 ?x1237) (_ bv1 32)) (ite $x3740 (bvadd (bvsub ?x2815 ?x2695) (_ bv1 32)) ?x6173))))
(let ((?x8016 (ite $x1520 (_ bv244 32) (_ bv243 32))))
(let (($x1191 (bvsge ?x2815 ?x8016)))
(let ((?x1617 (ite $x1520 (_ bv274 32) (_ bv273 32))))
(let (($x571 (bvsge ?x2815 ?x1617)))
(let ((?x3827 (ite $x571 (bvadd (bvsub ?x2815 ?x1617) (_ bv1 32)) (ite $x1191 (bvadd (bvsub ?x2815 ?x8016) (_ bv1 32)) ?x1842))))
(let ((?x1763 (ite $x1520 (_ bv305 32) (_ bv304 32))))
(let (($x605 (bvsge ?x2815 ?x1763)))
(let ((?x7603 (ite $x1520 (_ bv335 32) (_ bv334 32))))
(let (($x3772 (bvsge ?x2815 ?x7603)))
(let ((?x5155 (ite $x3772 (bvadd (bvsub ?x2815 ?x7603) (_ bv1 32)) (ite $x605 (bvadd (bvsub ?x2815 ?x1763) (_ bv1 32)) ?x3827))))
(let (($x6082 (= (_ bv0 32) (_ bv30 32))))
(let ((?x2005 (bvadd x_month (bvadd (bvmul (_ bv0 32) (_ bv12 32)) (_ bv1 32)))))
(let ((?x5591 (bvsub (ite (bvuge ?x2005 (_ bv2147483648 32)) (bvsub ?x2005 (_ bv0 32)) ?x2005) (_ bv1 32))))
(let ((?x886 (bvsmod ?x5591 (_ bv12 32))))
(let ((?x457 (bvadd ?x886 (_ bv1 32))))
(let (($x2792 (= (_ bv11 32) ?x457)))
(let (($x2098 (= (_ bv9 32) ?x457)))
(let (($x783 (= (_ bv6 32) ?x457)))
(let (($x729 (= (_ bv4 32) ?x457)))
(let ((?x3076 (bvsdiv ?x5591 (_ bv12 32))))
(let ((?x1204 (ite (and (bvuge ?x5591 (_ bv2147483648 32)) (and (distinct (_ bv0 32) ?x886) true)) (bvsub ?x3076 (_ bv1 32)) ?x3076)))
(let ((?x2507 (bvadd x_year ?x1204)))
(let (($x6576 (or (and (= (_ bv0 32) (bvsmod ?x2507 (_ bv4 32))) (and (distinct (_ bv0 32) (bvsmod ?x2507 (_ bv100 32))) true)) (= (_ bv0 32) (bvsmod ?x2507 (_ bv400 32))))))
(let (($x1292 (= (_ bv2 32) ?x457)))
(let ((?x691 (ite $x1292 (ite $x6576 (_ bv29 32) (_ bv28 32)) (ite (or $x729 $x783 $x2098 $x2792) (_ bv30 32) (_ bv31 32)))))
(let ((?x676 (ite $x899 (_ bv1 32) (ite (bvsgt x_day ?x691) ?x691 x_day))))
(let ((?x1017 (ite (bvsgt (_ bv1 32) ?x676) (_ bv1 32) (ite (bvsgt ?x676 ?x691) ?x691 ?x676))))
(let ((?x2541 (ite $x1292 (ite $x6576 (_ bv31 32) (_ bv31 32)) (ite (= (_ bv1 32) ?x457) (ite $x6576 (_ bv0 32) (_ bv0 32)) (_ bv0 32)))))
(let ((?x3629 (ite $x729 (ite $x6576 (_ bv91 32) (_ bv90 32)) (ite (= (_ bv3 32) ?x457) (ite $x6576 (_ bv60 32) (_ bv59 32)) ?x2541))))
(let ((?x1318 (ite $x783 (ite $x6576 (_ bv152 32) (_ bv151 32)) (ite (= (_ bv5 32) ?x457) (ite $x6576 (_ bv121 32) (_ bv120 32)) ?x3629))))
(let ((?x3180 (ite (= (_ bv8 32) ?x457) (ite $x6576 (_ bv213 32) (_ bv212 32)) (ite (= (_ bv7 32) ?x457) (ite $x6576 (_ bv182 32) (_ bv181 32)) ?x1318))))
(let ((?x2054 (ite (= (_ bv10 32) ?x457) (ite $x6576 (_ bv274 32) (_ bv273 32)) (ite $x2098 (ite $x6576 (_ bv244 32) (_ bv243 32)) ?x3180))))
(let ((?x1118 (ite (= (_ bv12 32) ?x457) (ite $x6576 (_ bv335 32) (_ bv334 32)) (ite $x2792 (ite $x6576 (_ bv305 32) (_ bv304 32)) ?x2054))))
(let ((?x1147 (bvadd (bvmul (_ bv365 32) (bvsub ?x2507 (_ bv1 32))) (bvsdiv (bvsub ?x2507 (_ bv1 32)) (_ bv4 32)))))
(let ((?x1408 (bvadd (bvsub ?x1147 (bvsdiv (bvsub ?x2507 (_ bv1 32)) (_ bv100 32))) (bvsdiv (bvsub ?x2507 (_ bv1 32)) (_ bv400 32)))))
(let ((?x699 (bvadd (bvadd (bvsub (bvadd (bvadd ?x1408 ?x1118) (bvsub ?x1017 (_ bv1 32))) (_ bv730179 32)) (_ bv0 32)) (_ bv730179 32))))
(let ((?x6984 (bvsmod ?x699 (_ bv146097 32))))
(let ((?x3266 (bvsdiv ?x6984 (_ bv36524 32))))
(let ((?x6049 (ite (bvsle (_ bv4 32) ?x3266) (_ bv3 32) ?x3266)))
(let ((?x2810 (bvsub ?x6984 (bvmul ?x6049 (_ bv36524 32)))))
(let ((?x4673 (bvsmod ?x2810 (_ bv1461 32))))
(let ((?x4012 (bvsdiv ?x4673 (_ bv365 32))))
(let ((?x3086 (ite (bvsle (_ bv4 32) ?x4012) (_ bv3 32) ?x4012)))
(let ((?x5292 (bvadd (bvadd (bvmul (bvsdiv ?x699 (_ bv146097 32)) (_ bv400 32)) (bvmul ?x6049 (_ bv100 32))) (bvmul (bvsdiv ?x2810 (_ bv1461 32)) (_ bv4 32)))))
(let ((?x2348 (bvadd (bvadd ?x5292 ?x3086) (_ bv1 32))))
(let (($x3093 (or (and (= (_ bv0 32) (bvsmod ?x2348 (_ bv4 32))) (and (distinct (_ bv0 32) (bvsmod ?x2348 (_ bv100 32))) true)) (= (_ bv0 32) (bvsmod ?x2348 (_ bv400 32))))))
(let ((?x2539 (bvsub ?x4673 (bvmul ?x3086 (_ bv365 32)))))
(let ((?x1119 (ite $x3093 (_ bv31 32) (_ bv31 32))))
(let (($x4486 (bvsge ?x2539 ?x1119)))
(let ((?x2715 (ite $x4486 (bvadd (bvsub ?x2539 ?x1119) (_ bv1 32)) (bvadd (bvsub ?x2539 (ite $x3093 (_ bv0 32) (_ bv0 32))) (_ bv1 32)))))
(let ((?x3550 (ite $x3093 (_ bv60 32) (_ bv59 32))))
(let (($x2844 (bvsge ?x2539 ?x3550)))
(let ((?x3145 (ite $x3093 (_ bv91 32) (_ bv90 32))))
(let (($x4235 (bvsge ?x2539 ?x3145)))
(let ((?x1495 (ite $x4235 (bvadd (bvsub ?x2539 ?x3145) (_ bv1 32)) (ite $x2844 (bvadd (bvsub ?x2539 ?x3550) (_ bv1 32)) ?x2715))))
(let ((?x3742 (ite $x3093 (_ bv121 32) (_ bv120 32))))
(let (($x5389 (bvsge ?x2539 ?x3742)))
(let ((?x2736 (ite $x3093 (_ bv152 32) (_ bv151 32))))
(let (($x5038 (bvsge ?x2539 ?x2736)))
(let ((?x3630 (ite $x5038 (bvadd (bvsub ?x2539 ?x2736) (_ bv1 32)) (ite $x5389 (bvadd (bvsub ?x2539 ?x3742) (_ bv1 32)) ?x1495))))
(let ((?x1805 (ite $x3093 (_ bv182 32) (_ bv181 32))))
(let (($x420 (bvsge ?x2539 ?x1805)))
(let ((?x622 (ite $x3093 (_ bv213 32) (_ bv212 32))))
(let (($x1848 (bvsge ?x2539 ?x622)))
(let ((?x1932 (ite $x1848 (bvadd (bvsub ?x2539 ?x622) (_ bv1 32)) (ite $x420 (bvadd (bvsub ?x2539 ?x1805) (_ bv1 32)) ?x3630))))
(let ((?x5091 (ite $x3093 (_ bv244 32) (_ bv243 32))))
(let (($x3407 (bvsge ?x2539 ?x5091)))
(let ((?x1026 (ite $x3093 (_ bv274 32) (_ bv273 32))))
(let (($x4020 (bvsge ?x2539 ?x1026)))
(let ((?x923 (ite $x4020 (bvadd (bvsub ?x2539 ?x1026) (_ bv1 32)) (ite $x3407 (bvadd (bvsub ?x2539 ?x5091) (_ bv1 32)) ?x1932))))
(let ((?x2516 (ite $x3093 (_ bv305 32) (_ bv304 32))))
(let (($x2912 (bvsge ?x2539 ?x2516)))
(let ((?x3817 (ite $x3093 (_ bv335 32) (_ bv334 32))))
(let (($x2608 (bvsge ?x2539 ?x3817)))
(let ((?x3225 (ite $x2608 (bvadd (bvsub ?x2539 ?x3817) (_ bv1 32)) (ite $x2912 (bvadd (bvsub ?x2539 ?x2516) (_ bv1 32)) ?x923))))
(let (($x3025 (= (_ bv0 32) (_ bv0 32))))
(let ((?x2528 (ite $x5838 (_ bv6 32) (ite $x4259 (_ bv5 32) (ite $x3741 (_ bv4 32) (ite $x3664 (_ bv3 32) (ite $x4366 (_ bv2 32) (_ bv1 32))))))))
(let ((?x1088 (ite $x605 (_ bv11 32) (ite $x571 (_ bv10 32) (ite $x1191 (_ bv9 32) (ite $x2923 (_ bv8 32) (ite $x3740 (_ bv7 32) ?x2528)))))))
(let ((?x2076 (ite $x3772 (_ bv12 32) ?x1088)))
(let ((?x2514 (ite $x5038 (_ bv6 32) (ite $x5389 (_ bv5 32) (ite $x4235 (_ bv4 32) (ite $x2844 (_ bv3 32) (ite $x4486 (_ bv2 32) (_ bv1 32))))))))
(let ((?x3028 (ite $x2912 (_ bv11 32) (ite $x4020 (_ bv10 32) (ite $x3407 (_ bv9 32) (ite $x1848 (_ bv8 32) (ite $x420 (_ bv7 32) ?x2514)))))))
(let (($x1362 (and (= (ite $x3025 ?x2507 ?x2348) (ite $x6082 ?x2800 ?x5012)) (= (ite $x3025 ?x457 (ite $x2608 (_ bv12 32) ?x3028)) (ite $x6082 ?x1761 ?x2076)) (= (ite $x3025 ?x1017 ?x3225) (ite $x6082 ?x3505 ?x5155)))))
(not $x1362)))))))))))))))))))))))))))))))))))))))))))))))))))))))))))))))))))))))))))))))))))))))))))))))))))))))))))))))))))))))))))))))))))))))))))
(check-sat)
